20
0 1 0.53 0.29
0 2 0.62 0.18
0 3 0.6 0.37
0 4 0.75 0.44
0 5 0.49 0.26
0 6 0.75 0.24
0 7 0.64 0.31
0 8 0.48 0.26
0 9 0.83 0.36
0 10 0.83 0.27
0 11 0.36 0.32
0 12 0.68 0.35
0 13 0.4 0.22
0 14 0.69 0.32
0 15 0.66 0.28
0 16 0.5 0.14
0 17 0.38 0.09
0 18 0.54 0.28
0 19 0.8 0.36
1 2 0.86 0.32
1 3 0.73 0.35
1 4 0.64 0.33
1 5 0.6 0.21
1 6 0.56 0.28
1 7 0.51 0.16
1 8 0.63 0.18
1 9 0.6 0.34
1 10 0.85 0.41
1 11 0.49 0.25
1 12 0.66 0.44
1 13 0.39 0.24
1 14 0.4 0.12
1 15 0.8 0.32
1 16 0.7 0.33
1 17 0.76 0.35
1 18 0.72 0.36
1 19 0.58 0.2
2 3 0.62 0.21
2 4 0.68 0.34
2 5 0.87 0.32
2 6 0.5 0.32
2 7 0.44 0.39
2 8 0.52 0.33
2 9 0.34 0.18
2 10 0.5 0.28
2 11 0.82 0.31
2 12 0.49 0.32
2 13 0.63 0.4
2 14 0.67 0.33
2 15 0.58 0.34
2 16 0.52 0.32
2 17 0.68 0.27
2 18 0.31 0.1
2 19 0.91 0.41
3 4 0.49 0.29
3 5 0.41 0.14
3 6 0.77 0.17
3 7 0.82 0.32
3 8 0.5 0.24
3 9 0.7 0.24
3 10 0.67 0.1
3 11 0.24 0.1
3 12 0.78 0.18
3 13 0.68 0.33
3 14 0.6 0.23
3 15 0.14 0.13
3 16 0.68 0.36
3 17 0.72 0.28
3 18 0.6 0.31
3 19 0.54 0.27
4 5 0.45 0.28
4 6 0.42 0.2
4 7 0.42 0.34
4 8 0.68 0.3
4 9 0.5 0.33
4 10 0.79 0.22
4 11 0.51 0.24
4 12 0.81 0.3
4 13 0.6 0.36
4 14 0.25 0.21
4 15 0.42 0.16
4 16 0.69 0.44
4 17 0.73 0.35
4 18 0.66 0.24
4 19 0.59 0.29
5 6 0.37 0.08
5 7 0.82 0.18
5 8 0.51 0.26
5 9 0.64 0.3
5 10 0.6 0.24
5 11 0.56 0.16
5 12 0.72 0.32
5 13 0.66 0.32
5 14 0.2 0.09
5 15 0.55 0.12
5 16 0.64 0.34
5 17 0.68 0.23
5 18 0.61 0.33
5 19 0.65 0.17
6 7 0.56 0.26
6 8 0.54 0.18
6 9 0.52 0.34
6 10 0.71 0.27
6 11 0.53 0.24
6 12 0.45 0.26
6 13 0.78 0.24
6 14 0.17 0.16
6 15 0.64 0.04
6 16 0.46 0.33
6 17 0.52 0.15
6 18 0.58 0.4
6 19 0.72 0.18
7 8 0.5 0.31
7 9 0.58 0.26
7 10 0.71 0.25
7 11 0.58 0.26
7 12 0.42 0.33
7 13 0.26 0.21
7 14 0.66 0.27
7 15 0.84 0.3
7 16 0.69 0.19
7 17 0.54 0.22
7 18 0.56 0.35
7 19 0.61 0.29
8 9 0.56 0.16
8 10 0.74 0.34
8 11 0.56 0.3
8 12 0.68 0.34
8 13 0.24 0.1
8 14 0.71 0.21
8 15 0.63 0.14
8 16 0.82 0.15
8 17 0.64 0.33
8 18 0.44 0.23
8 19 0.5 0.15
9 10 0.72 0.34
9 11 0.65 0.14
9 12 0.52 0.35
9 13 0.68 0.26
9 14 0.68 0.27
9 15 0.8 0.3
9 16 0.52 0.31
9 17 0.45 0.35
9 18 0.62 0.09
9 19 0.63 0.31
10 11 0.76 0.2
10 12 0.64 0.08
10 13 0.56 0.28
10 14 0.54 0.33
10 15 0.53 0.23
10 16 0.36 0.27
10 17 0.5 0.18
10 18 0.54 0.25
10 19 0.52 0.37
11 12 0.72 0.28
11 13 0.44 0.36
11 14 0.36 0.13
11 15 0.38 0.23
11 16 0.8 0.38
11 17 0.52 0.3
11 18 0.77 0.23
11 19 0.78 0.21
12 13 0.54 0.24
12 14 0.62 0.41
12 15 0.7 0.3
12 16 0.53 0.3
12 17 0.55 0.26
12 18 0.48 0.26
12 19 0.42 0.4
13 14 0.79 0.31
13 15 0.74 0.2
13 16 0.72 0.25
13 17 0.57 0.31
13 18 0.57 0.33
13 19 0.64 0.25
14 15 0.47 0.2
14 16 0.44 0.25
14 17 0.48 0.23
14 18 0.41 0.24
14 19 0.59 0.08
15 16 0.54 0.29
15 17 0.78 0.19
15 18 0.74 0.37
15 19 0.54 0.14
16 17 0.42 0.23
16 18 0.76 0.38
16 19 0.7 0.3
17 18 0.52 0.26
17 19 0.42 0.27
18 19 0.78 0.32
